instances/minha/csp5.lp
\ENCODING=ISO-8859-1
\Problem name: spp

Minimize
 obj: 3 x1 + 5 x2 + 4 x3
Subject To
 c1: x2 >= 1
 c2: x1 >= 1
 c3: x1 + x2 + x3 >= 1
 c4: x3 >= 1
 c5: >= 1
Bounds
 0 <= x1 <= 1
 0 <= x2 <= 1
 0 <= x3 <= 1
End
