instances/minha/csp5.txt
5  10
1  7
1  4
11 14
6  10
11 15
1 3 5
1 5 6
2 3 3
2 4 4
2 5 6
4 3 4
4 5 3
